0000000000000000
0000000000000000
0000000000000000
0111000000000000
0011111001111000
0000001111001110
0000000000111000
0000000000111000
0000000000111000
0000000001111000
0000000000111000
0000000000111000
0000000000111100
0000000000111000
0000000000111000
0000000000000000